50
1 0 39
2 0 45
2 1 40
3 0 6
3 1 98
3 2 114
4 0 102
4 1 38
4 2 89
4 3 49
5 0 104
5 1 73
5 2 24
5 3 17
5 4 83
6 0 118
6 1 78
6 2 65
6 3 101
6 4 111
6 5 79
7 0 14
7 1 10
7 2 98
7 3 82
7 4 73
7 5 34
7 6 85
8 0 87
8 1 12
8 2 106
8 3 17
8 4 63
8 5 58
8 6 114
8 7 93
9 0 109
9 1 68
9 2 28
9 3 120
9 4 15
9 5 93
9 6 81
9 7 106
9 8 62
10 0 26
10 1 28
10 2 3
10 3 92
10 4 70
10 5 9
10 6 32
10 7 65
10 8 21
10 9 42
11 0 34
11 1 43
11 2 105
11 3 28
11 4 54
11 5 116
11 6 12
11 7 109
11 8 73
11 9 58
11 10 105
12 0 80
12 1 78
12 2 25
12 3 71
12 4 32
12 5 101
12 6 92
12 7 17
12 8 35
12 9 63
12 10 2
12 11 52
13 0 15
13 1 66
13 2 114
13 3 71
13 4 88
13 5 60
13 6 47
13 7 19
13 8 56
13 9 84
13 10 37
13 11 29
13 12 59
14 0 48
14 1 5
14 2 56
14 3 77
14 4 96
14 5 90
14 6 115
14 7 75
14 8 86
14 9 101
14 10 117
14 11 16
14 12 119
14 13 33
15 0 93
15 1 19
15 2 15
15 3 102
15 4 95
15 5 51
15 6 69
15 7 15
15 8 41
15 9 6
15 10 86
15 11 34
15 12 46
15 13 65
15 14 64
16 0 32
16 1 112
16 2 113
16 3 46
16 4 5
16 5 43
16 6 83
16 7 59
16 8 73
16 9 62
16 10 44
16 11 117
16 12 36
16 13 61
16 14 75
16 15 73
17 0 57
17 1 56
17 2 95
17 3 71
17 4 64
17 5 86
17 6 6
17 7 119
17 8 108
17 9 32
17 10 14
17 11 82
17 12 71
17 13 25
17 14 96
17 15 119
17 16 18
18 0 106
18 1 3
18 2 30
18 3 43
18 4 69
18 5 2
18 6 3
18 7 120
18 8 21
18 9 92
18 10 96
18 11 40
18 12 24
18 13 11
18 14 33
18 15 42
18 16 108
18 17 94
19 0 66
19 1 95
19 2 60
19 3 83
19 4 114
19 5 64
19 6 92
19 7 93
19 8 29
19 9 111
19 10 53
19 11 53
19 12 47
19 13 114
19 14 18
19 15 79
19 16 30
19 17 68
19 18 117
20 0 92
20 1 87
20 2 52
20 3 93
20 4 105
20 5 44
20 6 105
20 7 90
20 8 40
20 9 50
20 10 108
20 11 12
20 12 76
20 13 91
20 14 63
20 15 78
20 16 85
20 17 37
20 18 92
20 19 86
21 0 66
21 1 86
21 2 1
21 3 87
21 4 71
21 5 72
21 6 81
21 7 38
21 8 21
21 9 60
21 10 43
21 11 104
21 12 28
21 13 38
21 14 106
21 15 93
21 16 106
21 17 120
21 18 111
21 19 105
21 20 60
22 0 82
22 1 9
22 2 99
22 3 85
22 4 63
22 5 83
22 6 45
22 7 6
22 8 118
22 9 93
22 10 95
22 11 63
22 12 39
22 13 74
22 14 118
22 15 19
22 16 49
22 17 23
22 18 108
22 19 23
22 20 41
22 21 51
23 0 49
23 1 91
23 2 36
23 3 85
23 4 82
23 5 1
23 6 78
23 7 58
23 8 93
23 9 3
23 10 44
23 11 82
23 12 115
23 13 13
23 14 9
23 15 26
23 16 108
23 17 18
23 18 50
23 19 8
23 20 111
23 21 31
23 22 68
24 0 55
24 1 94
24 2 95
24 3 116
24 4 26
24 5 93
24 6 64
24 7 91
24 8 45
24 9 3
24 10 73
24 11 44
24 12 62
24 13 53
24 14 46
24 15 29
24 16 54
24 17 61
24 18 58
24 19 98
24 20 33
24 21 112
24 22 72
24 23 1
25 0 105
25 1 114
25 2 103
25 3 111
25 4 43
25 5 81
25 6 83
25 7 79
25 8 9
25 9 94
25 10 91
25 11 21
25 12 16
25 13 64
25 14 16
25 15 96
25 16 80
25 17 101
25 18 109
25 19 99
25 20 17
25 21 103
25 22 119
25 23 14
25 24 62
26 0 50
26 1 64
26 2 100
26 3 10
26 4 15
26 5 63
26 6 80
26 7 29
26 8 15
26 9 35
26 10 18
26 11 65
26 12 79
26 13 9
26 14 111
26 15 94
26 16 11
26 17 100
26 18 10
26 19 117
26 20 112
26 21 112
26 22 116
26 23 54
26 24 2
26 25 63
27 0 120
27 1 59
27 2 116
27 3 66
27 4 51
27 5 9
27 6 61
27 7 100
27 8 9
27 9 108
27 10 34
27 11 80
27 12 68
27 13 67
27 14 34
27 15 97
27 16 52
27 17 64
27 18 116
27 19 100
27 20 23
27 21 65
27 22 88
27 23 30
27 24 38
27 25 33
27 26 37
28 0 99
28 1 76
28 2 65
28 3 28
28 4 1
28 5 74
28 6 56
28 7 58
28 8 53
28 9 64
28 10 18
28 11 106
28 12 109
28 13 58
28 14 119
28 15 108
28 16 26
28 17 94
28 18 80
28 19 119
28 20 104
28 21 30
28 22 24
28 23 65
28 24 61
28 25 25
28 26 107
28 27 118
29 0 70
29 1 55
29 2 1
29 3 111
29 4 61
29 5 51
29 6 34
29 7 4
29 8 55
29 9 28
29 10 106
29 11 22
29 12 71
29 13 52
29 14 30
29 15 16
29 16 11
29 17 78
29 18 1
29 19 78
29 20 75
29 21 45
29 22 108
29 23 110
29 24 112
29 25 70
29 26 33
29 27 69
29 28 78
30 0 8
30 1 100
30 2 102
30 3 76
30 4 58
30 5 58
30 6 53
30 7 50
30 8 81
30 9 57
30 10 34
30 11 55
30 12 75
30 13 44
30 14 37
30 15 45
30 16 17
30 17 42
30 18 91
30 19 48
30 20 32
30 21 107
30 22 92
30 23 65
30 24 92
30 25 118
30 26 23
30 27 51
30 28 44
30 29 31
31 0 117
31 1 85
31 2 68
31 3 91
31 4 51
31 5 45
31 6 18
31 7 29
31 8 36
31 9 76
31 10 93
31 11 30
31 12 65
31 13 115
31 14 25
31 15 32
31 16 119
31 17 69
31 18 14
31 19 87
31 20 66
31 21 57
31 22 60
31 23 93
31 24 57
31 25 85
31 26 22
31 27 117
31 28 107
31 29 70
31 30 102
32 0 38
32 1 84
32 2 116
32 3 79
32 4 38
32 5 37
32 6 100
32 7 47
32 8 119
32 9 13
32 10 95
32 11 75
32 12 5
32 13 56
32 14 27
32 15 54
32 16 66
32 17 77
32 18 25
32 19 78
32 20 108
32 21 2
32 22 55
32 23 51
32 24 107
32 25 46
32 26 104
32 27 5
32 28 14
32 29 47
32 30 47
32 31 7
33 0 24
33 1 25
33 2 54
33 3 102
33 4 45
33 5 1
33 6 1
33 7 90
33 8 56
33 9 8
33 10 117
33 11 1
33 12 50
33 13 30
33 14 81
33 15 31
33 16 86
33 17 45
33 18 59
33 19 36
33 20 66
33 21 94
33 22 111
33 23 47
33 24 57
33 25 109
33 26 80
33 27 43
33 28 95
33 29 94
33 30 55
33 31 16
33 32 15
34 0 102
34 1 95
34 2 69
34 3 107
34 4 45
34 5 91
34 6 92
34 7 48
34 8 46
34 9 75
34 10 3
34 11 3
34 12 118
34 13 103
34 14 47
34 15 83
34 16 45
34 17 88
34 18 31
34 19 47
34 20 1
34 21 92
34 22 57
34 23 84
34 24 77
34 25 70
34 26 19
34 27 48
34 28 35
34 29 117
34 30 96
34 31 87
34 32 35
34 33 21
35 0 78
35 1 98
35 2 116
35 3 88
35 4 46
35 5 41
35 6 80
35 7 55
35 8 57
35 9 60
35 10 14
35 11 39
35 12 104
35 13 92
35 14 44
35 15 26
35 16 94
35 17 12
35 18 91
35 19 11
35 20 103
35 21 63
35 22 95
35 23 95
35 24 104
35 25 34
35 26 78
35 27 69
35 28 88
35 29 109
35 30 105
35 31 29
35 32 76
35 33 3
35 34 57
36 0 31
36 1 44
36 2 80
36 3 40
36 4 44
36 5 32
36 6 44
36 7 98
36 8 62
36 9 45
36 10 56
36 11 114
36 12 19
36 13 73
36 14 24
36 15 55
36 16 22
36 17 29
36 18 79
36 19 70
36 20 13
36 21 89
36 22 74
36 23 68
36 24 31
36 25 118
36 26 95
36 27 12
36 28 116
36 29 33
36 30 24
36 31 18
36 32 30
36 33 85
36 34 46
36 35 120
37 0 35
37 1 102
37 2 111
37 3 46
37 4 85
37 5 80
37 6 56
37 7 9
37 8 64
37 9 41
37 10 2
37 11 32
37 12 40
37 13 28
37 14 52
37 15 78
37 16 106
37 17 32
37 18 38
37 19 7
37 20 35
37 21 44
37 22 73
37 23 112
37 24 72
37 25 107
37 26 89
37 27 19
37 28 16
37 29 2
37 30 14
37 31 111
37 32 25
37 33 71
37 34 23
37 35 82
37 36 108
38 0 120
38 1 63
38 2 46
38 3 8
38 4 103
38 5 62
38 6 58
38 7 96
38 8 96
38 9 86
38 10 56
38 11 106
38 12 64
38 13 115
38 14 110
38 15 15
38 16 107
38 17 71
38 18 38
38 19 66
38 20 93
38 21 82
38 22 5
38 23 88
38 24 112
38 25 117
38 26 46
38 27 113
38 28 23
38 29 93
38 30 63
38 31 86
38 32 57
38 33 42
38 34 81
38 35 12
38 36 87
38 37 31
39 0 117
39 1 84
39 2 76
39 3 100
39 4 86
39 5 30
39 6 84
39 7 80
39 8 10
39 9 36
39 10 19
39 11 108
39 12 60
39 13 35
39 14 73
39 15 72
39 16 11
39 17 21
39 18 66
39 19 54
39 20 11
39 21 17
39 22 10
39 23 96
39 24 8
39 25 39
39 26 63
39 27 63
39 28 32
39 29 57
39 30 72
39 31 38
39 32 67
39 33 109
39 34 66
39 35 52
39 36 88
39 37 42
39 38 43
40 0 6
40 1 7
40 2 38
40 3 90
40 4 65
40 5 56
40 6 35
40 7 106
40 8 59
40 9 92
40 10 97
40 11 94
40 12 42
40 13 72
40 14 18
40 15 104
40 16 98
40 17 31
40 18 39
40 19 31
40 20 51
40 21 50
40 22 58
40 23 78
40 24 13
40 25 53
40 26 117
40 27 114
40 28 55
40 29 107
40 30 88
40 31 113
40 32 8
40 33 36
40 34 74
40 35 78
40 36 26
40 37 43
40 38 106
40 39 35
41 0 86
41 1 10
41 2 12
41 3 101
41 4 85
41 5 85
41 6 110
41 7 82
41 8 81
41 9 25
41 10 81
41 11 106
41 12 13
41 13 89
41 14 89
41 15 111
41 16 47
41 17 69
41 18 2
41 19 19
41 20 119
41 21 3
41 22 120
41 23 17
41 24 115
41 25 81
41 26 48
41 27 79
41 28 37
41 29 103
41 30 25
41 31 13
41 32 107
41 33 7
41 34 66
41 35 65
41 36 77
41 37 104
41 38 111
41 39 76
41 40 58
42 0 71
42 1 70
42 2 15
42 3 25
42 4 73
42 5 16
42 6 96
42 7 14
42 8 12
42 9 76
42 10 105
42 11 22
42 12 96
42 13 85
42 14 40
42 15 17
42 16 96
42 17 73
42 18 94
42 19 86
42 20 74
42 21 12
42 22 77
42 23 93
42 24 8
42 25 72
42 26 97
42 27 38
42 28 70
42 29 7
42 30 21
42 31 55
42 32 11
42 33 51
42 34 77
42 35 107
42 36 65
42 37 81
42 38 46
42 39 40
42 40 91
42 41 98
43 0 68
43 1 20
43 2 20
43 3 37
43 4 111
43 5 17
43 6 59
43 7 92
43 8 79
43 9 97
43 10 77
43 11 117
43 12 76
43 13 24
43 14 36
43 15 61
43 16 1
43 17 97
43 18 101
43 19 66
43 20 67
43 21 107
43 22 91
43 23 76
43 24 47
43 25 84
43 26 75
43 27 51
43 28 104
43 29 17
43 30 32
43 31 102
43 32 106
43 33 116
43 34 88
43 35 5
43 36 100
43 37 56
43 38 19
43 39 114
43 40 111
43 41 36
43 42 85
44 0 94
44 1 75
44 2 118
44 3 13
44 4 37
44 5 48
44 6 6
44 7 57
44 8 103
44 9 23
44 10 119
44 11 55
44 12 74
44 13 7
44 14 60
44 15 113
44 16 52
44 17 120
44 18 65
44 19 90
44 20 28
44 21 4
44 22 46
44 23 22
44 24 97
44 25 100
44 26 63
44 27 25
44 28 78
44 29 82
44 30 22
44 31 93
44 32 106
44 33 48
44 34 97
44 35 59
44 36 81
44 37 63
44 38 84
44 39 74
44 40 70
44 41 10
44 42 102
44 43 31
45 0 82
45 1 58
45 2 45
45 3 110
45 4 72
45 5 56
45 6 45
45 7 16
45 8 65
45 9 27
45 10 109
45 11 82
45 12 16
45 13 120
45 14 64
45 15 57
45 16 82
45 17 102
45 18 73
45 19 45
45 20 115
45 21 46
45 22 16
45 23 49
45 24 102
45 25 73
45 26 8
45 27 9
45 28 45
45 29 26
45 30 34
45 31 98
45 32 108
45 33 4
45 34 65
45 35 95
45 36 72
45 37 35
45 38 24
45 39 67
45 40 46
45 41 8
45 42 77
45 43 34
45 44 4
46 0 11
46 1 52
46 2 68
46 3 13
46 4 71
46 5 98
46 6 4
46 7 108
46 8 6
46 9 14
46 10 32
46 11 62
46 12 117
46 13 2
46 14 90
46 15 101
46 16 119
46 17 97
46 18 100
46 19 6
46 20 3
46 21 27
46 22 119
46 23 95
46 24 28
46 25 31
46 26 93
46 27 35
46 28 114
46 29 24
46 30 40
46 31 110
46 32 117
46 33 92
46 34 41
46 35 18
46 36 87
46 37 3
46 38 81
46 39 92
46 40 39
46 41 64
46 42 34
46 43 91
46 44 54
46 45 104
47 0 4
47 1 53
47 2 71
47 3 61
47 4 50
47 5 59
47 6 16
47 7 72
47 8 63
47 9 17
47 10 27
47 11 38
47 12 68
47 13 73
47 14 59
47 15 71
47 16 106
47 17 64
47 18 2
47 19 75
47 20 33
47 21 6
47 22 17
47 23 40
47 24 2
47 25 74
47 26 117
47 27 75
47 28 108
47 29 112
47 30 92
47 31 39
47 32 26
47 33 50
47 34 49
47 35 112
47 36 61
47 37 14
47 38 94
47 39 84
47 40 51
47 41 8
47 42 89
47 43 70
47 44 18
47 45 50
47 46 108
48 0 19
48 1 9
48 2 100
48 3 61
48 4 62
48 5 105
48 6 4
48 7 19
48 8 79
48 9 118
48 10 60
48 11 6
48 12 9
48 13 23
48 14 69
48 15 118
48 16 41
48 17 110
48 18 80
48 19 57
48 20 4
48 21 33
48 22 23
48 23 70
48 24 33
48 25 15
48 26 50
48 27 30
48 28 80
48 29 66
48 30 52
48 31 49
48 32 57
48 33 69
48 34 107
48 35 5
48 36 35
48 37 9
48 38 23
48 39 1
48 40 72
48 41 15
48 42 34
48 43 32
48 44 102
48 45 33
48 46 37
48 47 104
49 0 7
49 1 54
49 2 82
49 3 99
49 4 5
49 5 65
49 6 41
49 7 83
49 8 92
49 9 106
49 10 41
49 11 68
49 12 50
49 13 9
49 14 112
49 15 81
49 16 27
49 17 115
49 18 100
49 19 114
49 20 6
49 21 80
49 22 45
49 23 18
49 24 45
49 25 120
49 26 73
49 27 49
49 28 21
49 29 86
49 30 92
49 31 37
49 32 85
49 33 31
49 34 51
49 35 110
49 36 47
49 37 18
49 38 47
49 39 33
49 40 17
49 41 19
49 42 23
49 43 36
49 44 104
49 45 78
49 46 75
49 47 23
49 48 18
